c *********************************
c * Circuit generated by BenCGen
c *
c * CarrySkipAdder_93_93_93_InOut_G4T
c *
c * Ports with 1 gate(s): 27
c * Ports with 2 gate(s): 514
c * Ports with 4 gate(s): 23
c * Total gates: 564
c *********************************
p cnf 750 1897
1 282 0
-1 -282 0
1 -281 0
282 -281 0
-1 -282 281 0
1 94 -285 0
-1 94 285 0
1 -94 285 0
-1 -94 -285 0
285 281 -187 0
-285 281 187 0
285 -281 187 0
-285 -281 -187 0
281 -286 0
285 -286 0
-281 -285 286 0
94 -287 0
1 -287 0
-94 -1 287 0
-286 284 0
-287 284 0
286 287 -284 0
2 95 -289 0
-2 95 289 0
2 -95 289 0
-2 -95 -289 0
289 284 -188 0
-289 284 188 0
289 -284 188 0
-289 -284 -188 0
284 -290 0
289 -290 0
-284 -289 290 0
95 -291 0
2 -291 0
-95 -2 291 0
-290 288 0
-291 288 0
290 291 -288 0
3 96 -293 0
-3 96 293 0
3 -96 293 0
-3 -96 -293 0
293 288 -189 0
-293 288 189 0
293 -288 189 0
-293 -288 -189 0
288 -294 0
293 -294 0
-288 -293 294 0
96 -295 0
3 -295 0
-96 -3 295 0
-294 292 0
-295 292 0
294 295 -292 0
4 97 -296 0
-4 97 296 0
4 -97 296 0
-4 -97 -296 0
296 292 -190 0
-296 292 190 0
296 -292 190 0
-296 -292 -190 0
292 -297 0
296 -297 0
-292 -296 297 0
97 -298 0
4 -298 0
-97 -4 298 0
-297 283 0
-298 283 0
297 298 -283 0
285 -299 0
289 -299 0
293 -299 0
296 -299 0
-285 -289 -293 -296 299 0
298 -300 0
-298 300 0
281 -301 0
299 -301 0
-281 -299 301 0
-301 302 0
-283 302 0
301 283 -302 0
5 98 -305 0
-5 98 305 0
5 -98 305 0
-5 -98 -305 0
305 302 -191 0
-305 302 191 0
305 -302 191 0
-305 -302 -191 0
302 -306 0
305 -306 0
-302 -305 306 0
98 -307 0
5 -307 0
-98 -5 307 0
-306 304 0
-307 304 0
306 307 -304 0
6 99 -309 0
-6 99 309 0
6 -99 309 0
-6 -99 -309 0
309 304 -192 0
-309 304 192 0
309 -304 192 0
-309 -304 -192 0
304 -310 0
309 -310 0
-304 -309 310 0
99 -311 0
6 -311 0
-99 -6 311 0
-310 308 0
-311 308 0
310 311 -308 0
7 100 -313 0
-7 100 313 0
7 -100 313 0
-7 -100 -313 0
313 308 -193 0
-313 308 193 0
313 -308 193 0
-313 -308 -193 0
308 -314 0
313 -314 0
-308 -313 314 0
100 -315 0
7 -315 0
-100 -7 315 0
-314 312 0
-315 312 0
314 315 -312 0
8 101 -316 0
-8 101 316 0
8 -101 316 0
-8 -101 -316 0
316 312 -194 0
-316 312 194 0
316 -312 194 0
-316 -312 -194 0
312 -317 0
316 -317 0
-312 -316 317 0
101 -318 0
8 -318 0
-101 -8 318 0
-317 303 0
-318 303 0
317 318 -303 0
305 -319 0
309 -319 0
313 -319 0
316 -319 0
-305 -309 -313 -316 319 0
318 -320 0
-318 320 0
302 -321 0
319 -321 0
-302 -319 321 0
-321 322 0
-303 322 0
321 303 -322 0
9 102 -325 0
-9 102 325 0
9 -102 325 0
-9 -102 -325 0
325 322 -195 0
-325 322 195 0
325 -322 195 0
-325 -322 -195 0
322 -326 0
325 -326 0
-322 -325 326 0
102 -327 0
9 -327 0
-102 -9 327 0
-326 324 0
-327 324 0
326 327 -324 0
10 103 -329 0
-10 103 329 0
10 -103 329 0
-10 -103 -329 0
329 324 -196 0
-329 324 196 0
329 -324 196 0
-329 -324 -196 0
324 -330 0
329 -330 0
-324 -329 330 0
103 -331 0
10 -331 0
-103 -10 331 0
-330 328 0
-331 328 0
330 331 -328 0
11 104 -333 0
-11 104 333 0
11 -104 333 0
-11 -104 -333 0
333 328 -197 0
-333 328 197 0
333 -328 197 0
-333 -328 -197 0
328 -334 0
333 -334 0
-328 -333 334 0
104 -335 0
11 -335 0
-104 -11 335 0
-334 332 0
-335 332 0
334 335 -332 0
12 105 -336 0
-12 105 336 0
12 -105 336 0
-12 -105 -336 0
336 332 -198 0
-336 332 198 0
336 -332 198 0
-336 -332 -198 0
332 -337 0
336 -337 0
-332 -336 337 0
105 -338 0
12 -338 0
-105 -12 338 0
-337 323 0
-338 323 0
337 338 -323 0
325 -339 0
329 -339 0
333 -339 0
336 -339 0
-325 -329 -333 -336 339 0
338 -340 0
-338 340 0
322 -341 0
339 -341 0
-322 -339 341 0
-341 342 0
-323 342 0
341 323 -342 0
13 106 -345 0
-13 106 345 0
13 -106 345 0
-13 -106 -345 0
345 342 -199 0
-345 342 199 0
345 -342 199 0
-345 -342 -199 0
342 -346 0
345 -346 0
-342 -345 346 0
106 -347 0
13 -347 0
-106 -13 347 0
-346 344 0
-347 344 0
346 347 -344 0
14 107 -349 0
-14 107 349 0
14 -107 349 0
-14 -107 -349 0
349 344 -200 0
-349 344 200 0
349 -344 200 0
-349 -344 -200 0
344 -350 0
349 -350 0
-344 -349 350 0
107 -351 0
14 -351 0
-107 -14 351 0
-350 348 0
-351 348 0
350 351 -348 0
15 108 -353 0
-15 108 353 0
15 -108 353 0
-15 -108 -353 0
353 348 -201 0
-353 348 201 0
353 -348 201 0
-353 -348 -201 0
348 -354 0
353 -354 0
-348 -353 354 0
108 -355 0
15 -355 0
-108 -15 355 0
-354 352 0
-355 352 0
354 355 -352 0
16 109 -356 0
-16 109 356 0
16 -109 356 0
-16 -109 -356 0
356 352 -202 0
-356 352 202 0
356 -352 202 0
-356 -352 -202 0
352 -357 0
356 -357 0
-352 -356 357 0
109 -358 0
16 -358 0
-109 -16 358 0
-357 343 0
-358 343 0
357 358 -343 0
345 -359 0
349 -359 0
353 -359 0
356 -359 0
-345 -349 -353 -356 359 0
358 -360 0
-358 360 0
342 -361 0
359 -361 0
-342 -359 361 0
-361 362 0
-343 362 0
361 343 -362 0
17 110 -365 0
-17 110 365 0
17 -110 365 0
-17 -110 -365 0
365 362 -203 0
-365 362 203 0
365 -362 203 0
-365 -362 -203 0
362 -366 0
365 -366 0
-362 -365 366 0
110 -367 0
17 -367 0
-110 -17 367 0
-366 364 0
-367 364 0
366 367 -364 0
18 111 -369 0
-18 111 369 0
18 -111 369 0
-18 -111 -369 0
369 364 -204 0
-369 364 204 0
369 -364 204 0
-369 -364 -204 0
364 -370 0
369 -370 0
-364 -369 370 0
111 -371 0
18 -371 0
-111 -18 371 0
-370 368 0
-371 368 0
370 371 -368 0
19 112 -373 0
-19 112 373 0
19 -112 373 0
-19 -112 -373 0
373 368 -205 0
-373 368 205 0
373 -368 205 0
-373 -368 -205 0
368 -374 0
373 -374 0
-368 -373 374 0
112 -375 0
19 -375 0
-112 -19 375 0
-374 372 0
-375 372 0
374 375 -372 0
20 113 -376 0
-20 113 376 0
20 -113 376 0
-20 -113 -376 0
376 372 -206 0
-376 372 206 0
376 -372 206 0
-376 -372 -206 0
372 -377 0
376 -377 0
-372 -376 377 0
113 -378 0
20 -378 0
-113 -20 378 0
-377 363 0
-378 363 0
377 378 -363 0
365 -379 0
369 -379 0
373 -379 0
376 -379 0
-365 -369 -373 -376 379 0
378 -380 0
-378 380 0
362 -381 0
379 -381 0
-362 -379 381 0
-381 382 0
-363 382 0
381 363 -382 0
21 114 -385 0
-21 114 385 0
21 -114 385 0
-21 -114 -385 0
385 382 -207 0
-385 382 207 0
385 -382 207 0
-385 -382 -207 0
382 -386 0
385 -386 0
-382 -385 386 0
114 -387 0
21 -387 0
-114 -21 387 0
-386 384 0
-387 384 0
386 387 -384 0
22 115 -389 0
-22 115 389 0
22 -115 389 0
-22 -115 -389 0
389 384 -208 0
-389 384 208 0
389 -384 208 0
-389 -384 -208 0
384 -390 0
389 -390 0
-384 -389 390 0
115 -391 0
22 -391 0
-115 -22 391 0
-390 388 0
-391 388 0
390 391 -388 0
23 116 -393 0
-23 116 393 0
23 -116 393 0
-23 -116 -393 0
393 388 -209 0
-393 388 209 0
393 -388 209 0
-393 -388 -209 0
388 -394 0
393 -394 0
-388 -393 394 0
116 -395 0
23 -395 0
-116 -23 395 0
-394 392 0
-395 392 0
394 395 -392 0
24 117 -396 0
-24 117 396 0
24 -117 396 0
-24 -117 -396 0
396 392 -210 0
-396 392 210 0
396 -392 210 0
-396 -392 -210 0
392 -397 0
396 -397 0
-392 -396 397 0
117 -398 0
24 -398 0
-117 -24 398 0
-397 383 0
-398 383 0
397 398 -383 0
385 -399 0
389 -399 0
393 -399 0
396 -399 0
-385 -389 -393 -396 399 0
398 -400 0
-398 400 0
382 -401 0
399 -401 0
-382 -399 401 0
-401 402 0
-383 402 0
401 383 -402 0
25 118 -405 0
-25 118 405 0
25 -118 405 0
-25 -118 -405 0
405 402 -211 0
-405 402 211 0
405 -402 211 0
-405 -402 -211 0
402 -406 0
405 -406 0
-402 -405 406 0
118 -407 0
25 -407 0
-118 -25 407 0
-406 404 0
-407 404 0
406 407 -404 0
26 119 -409 0
-26 119 409 0
26 -119 409 0
-26 -119 -409 0
409 404 -212 0
-409 404 212 0
409 -404 212 0
-409 -404 -212 0
404 -410 0
409 -410 0
-404 -409 410 0
119 -411 0
26 -411 0
-119 -26 411 0
-410 408 0
-411 408 0
410 411 -408 0
27 120 -413 0
-27 120 413 0
27 -120 413 0
-27 -120 -413 0
413 408 -213 0
-413 408 213 0
413 -408 213 0
-413 -408 -213 0
408 -414 0
413 -414 0
-408 -413 414 0
120 -415 0
27 -415 0
-120 -27 415 0
-414 412 0
-415 412 0
414 415 -412 0
28 121 -416 0
-28 121 416 0
28 -121 416 0
-28 -121 -416 0
416 412 -214 0
-416 412 214 0
416 -412 214 0
-416 -412 -214 0
412 -417 0
416 -417 0
-412 -416 417 0
121 -418 0
28 -418 0
-121 -28 418 0
-417 403 0
-418 403 0
417 418 -403 0
405 -419 0
409 -419 0
413 -419 0
416 -419 0
-405 -409 -413 -416 419 0
418 -420 0
-418 420 0
402 -421 0
419 -421 0
-402 -419 421 0
-421 422 0
-403 422 0
421 403 -422 0
29 122 -425 0
-29 122 425 0
29 -122 425 0
-29 -122 -425 0
425 422 -215 0
-425 422 215 0
425 -422 215 0
-425 -422 -215 0
422 -426 0
425 -426 0
-422 -425 426 0
122 -427 0
29 -427 0
-122 -29 427 0
-426 424 0
-427 424 0
426 427 -424 0
30 123 -429 0
-30 123 429 0
30 -123 429 0
-30 -123 -429 0
429 424 -216 0
-429 424 216 0
429 -424 216 0
-429 -424 -216 0
424 -430 0
429 -430 0
-424 -429 430 0
123 -431 0
30 -431 0
-123 -30 431 0
-430 428 0
-431 428 0
430 431 -428 0
31 124 -433 0
-31 124 433 0
31 -124 433 0
-31 -124 -433 0
433 428 -217 0
-433 428 217 0
433 -428 217 0
-433 -428 -217 0
428 -434 0
433 -434 0
-428 -433 434 0
124 -435 0
31 -435 0
-124 -31 435 0
-434 432 0
-435 432 0
434 435 -432 0
32 125 -436 0
-32 125 436 0
32 -125 436 0
-32 -125 -436 0
436 432 -218 0
-436 432 218 0
436 -432 218 0
-436 -432 -218 0
432 -437 0
436 -437 0
-432 -436 437 0
125 -438 0
32 -438 0
-125 -32 438 0
-437 423 0
-438 423 0
437 438 -423 0
425 -439 0
429 -439 0
433 -439 0
436 -439 0
-425 -429 -433 -436 439 0
438 -440 0
-438 440 0
422 -441 0
439 -441 0
-422 -439 441 0
-441 442 0
-423 442 0
441 423 -442 0
33 126 -445 0
-33 126 445 0
33 -126 445 0
-33 -126 -445 0
445 442 -219 0
-445 442 219 0
445 -442 219 0
-445 -442 -219 0
442 -446 0
445 -446 0
-442 -445 446 0
126 -447 0
33 -447 0
-126 -33 447 0
-446 444 0
-447 444 0
446 447 -444 0
34 127 -449 0
-34 127 449 0
34 -127 449 0
-34 -127 -449 0
449 444 -220 0
-449 444 220 0
449 -444 220 0
-449 -444 -220 0
444 -450 0
449 -450 0
-444 -449 450 0
127 -451 0
34 -451 0
-127 -34 451 0
-450 448 0
-451 448 0
450 451 -448 0
35 128 -453 0
-35 128 453 0
35 -128 453 0
-35 -128 -453 0
453 448 -221 0
-453 448 221 0
453 -448 221 0
-453 -448 -221 0
448 -454 0
453 -454 0
-448 -453 454 0
128 -455 0
35 -455 0
-128 -35 455 0
-454 452 0
-455 452 0
454 455 -452 0
36 129 -456 0
-36 129 456 0
36 -129 456 0
-36 -129 -456 0
456 452 -222 0
-456 452 222 0
456 -452 222 0
-456 -452 -222 0
452 -457 0
456 -457 0
-452 -456 457 0
129 -458 0
36 -458 0
-129 -36 458 0
-457 443 0
-458 443 0
457 458 -443 0
445 -459 0
449 -459 0
453 -459 0
456 -459 0
-445 -449 -453 -456 459 0
458 -460 0
-458 460 0
442 -461 0
459 -461 0
-442 -459 461 0
-461 462 0
-443 462 0
461 443 -462 0
37 130 -465 0
-37 130 465 0
37 -130 465 0
-37 -130 -465 0
465 462 -223 0
-465 462 223 0
465 -462 223 0
-465 -462 -223 0
462 -466 0
465 -466 0
-462 -465 466 0
130 -467 0
37 -467 0
-130 -37 467 0
-466 464 0
-467 464 0
466 467 -464 0
38 131 -469 0
-38 131 469 0
38 -131 469 0
-38 -131 -469 0
469 464 -224 0
-469 464 224 0
469 -464 224 0
-469 -464 -224 0
464 -470 0
469 -470 0
-464 -469 470 0
131 -471 0
38 -471 0
-131 -38 471 0
-470 468 0
-471 468 0
470 471 -468 0
39 132 -473 0
-39 132 473 0
39 -132 473 0
-39 -132 -473 0
473 468 -225 0
-473 468 225 0
473 -468 225 0
-473 -468 -225 0
468 -474 0
473 -474 0
-468 -473 474 0
132 -475 0
39 -475 0
-132 -39 475 0
-474 472 0
-475 472 0
474 475 -472 0
40 133 -476 0
-40 133 476 0
40 -133 476 0
-40 -133 -476 0
476 472 -226 0
-476 472 226 0
476 -472 226 0
-476 -472 -226 0
472 -477 0
476 -477 0
-472 -476 477 0
133 -478 0
40 -478 0
-133 -40 478 0
-477 463 0
-478 463 0
477 478 -463 0
465 -479 0
469 -479 0
473 -479 0
476 -479 0
-465 -469 -473 -476 479 0
478 -480 0
-478 480 0
462 -481 0
479 -481 0
-462 -479 481 0
-481 482 0
-463 482 0
481 463 -482 0
41 134 -485 0
-41 134 485 0
41 -134 485 0
-41 -134 -485 0
485 482 -227 0
-485 482 227 0
485 -482 227 0
-485 -482 -227 0
482 -486 0
485 -486 0
-482 -485 486 0
134 -487 0
41 -487 0
-134 -41 487 0
-486 484 0
-487 484 0
486 487 -484 0
42 135 -489 0
-42 135 489 0
42 -135 489 0
-42 -135 -489 0
489 484 -228 0
-489 484 228 0
489 -484 228 0
-489 -484 -228 0
484 -490 0
489 -490 0
-484 -489 490 0
135 -491 0
42 -491 0
-135 -42 491 0
-490 488 0
-491 488 0
490 491 -488 0
43 136 -493 0
-43 136 493 0
43 -136 493 0
-43 -136 -493 0
493 488 -229 0
-493 488 229 0
493 -488 229 0
-493 -488 -229 0
488 -494 0
493 -494 0
-488 -493 494 0
136 -495 0
43 -495 0
-136 -43 495 0
-494 492 0
-495 492 0
494 495 -492 0
44 137 -496 0
-44 137 496 0
44 -137 496 0
-44 -137 -496 0
496 492 -230 0
-496 492 230 0
496 -492 230 0
-496 -492 -230 0
492 -497 0
496 -497 0
-492 -496 497 0
137 -498 0
44 -498 0
-137 -44 498 0
-497 483 0
-498 483 0
497 498 -483 0
485 -499 0
489 -499 0
493 -499 0
496 -499 0
-485 -489 -493 -496 499 0
498 -500 0
-498 500 0
482 -501 0
499 -501 0
-482 -499 501 0
-501 502 0
-483 502 0
501 483 -502 0
45 138 -505 0
-45 138 505 0
45 -138 505 0
-45 -138 -505 0
505 502 -231 0
-505 502 231 0
505 -502 231 0
-505 -502 -231 0
502 -506 0
505 -506 0
-502 -505 506 0
138 -507 0
45 -507 0
-138 -45 507 0
-506 504 0
-507 504 0
506 507 -504 0
46 139 -509 0
-46 139 509 0
46 -139 509 0
-46 -139 -509 0
509 504 -232 0
-509 504 232 0
509 -504 232 0
-509 -504 -232 0
504 -510 0
509 -510 0
-504 -509 510 0
139 -511 0
46 -511 0
-139 -46 511 0
-510 508 0
-511 508 0
510 511 -508 0
47 140 -513 0
-47 140 513 0
47 -140 513 0
-47 -140 -513 0
513 508 -233 0
-513 508 233 0
513 -508 233 0
-513 -508 -233 0
508 -514 0
513 -514 0
-508 -513 514 0
140 -515 0
47 -515 0
-140 -47 515 0
-514 512 0
-515 512 0
514 515 -512 0
48 141 -516 0
-48 141 516 0
48 -141 516 0
-48 -141 -516 0
516 512 -234 0
-516 512 234 0
516 -512 234 0
-516 -512 -234 0
512 -517 0
516 -517 0
-512 -516 517 0
141 -518 0
48 -518 0
-141 -48 518 0
-517 503 0
-518 503 0
517 518 -503 0
505 -519 0
509 -519 0
513 -519 0
516 -519 0
-505 -509 -513 -516 519 0
518 -520 0
-518 520 0
502 -521 0
519 -521 0
-502 -519 521 0
-521 522 0
-503 522 0
521 503 -522 0
49 142 -525 0
-49 142 525 0
49 -142 525 0
-49 -142 -525 0
525 522 -235 0
-525 522 235 0
525 -522 235 0
-525 -522 -235 0
522 -526 0
525 -526 0
-522 -525 526 0
142 -527 0
49 -527 0
-142 -49 527 0
-526 524 0
-527 524 0
526 527 -524 0
50 143 -529 0
-50 143 529 0
50 -143 529 0
-50 -143 -529 0
529 524 -236 0
-529 524 236 0
529 -524 236 0
-529 -524 -236 0
524 -530 0
529 -530 0
-524 -529 530 0
143 -531 0
50 -531 0
-143 -50 531 0
-530 528 0
-531 528 0
530 531 -528 0
51 144 -533 0
-51 144 533 0
51 -144 533 0
-51 -144 -533 0
533 528 -237 0
-533 528 237 0
533 -528 237 0
-533 -528 -237 0
528 -534 0
533 -534 0
-528 -533 534 0
144 -535 0
51 -535 0
-144 -51 535 0
-534 532 0
-535 532 0
534 535 -532 0
52 145 -536 0
-52 145 536 0
52 -145 536 0
-52 -145 -536 0
536 532 -238 0
-536 532 238 0
536 -532 238 0
-536 -532 -238 0
532 -537 0
536 -537 0
-532 -536 537 0
145 -538 0
52 -538 0
-145 -52 538 0
-537 523 0
-538 523 0
537 538 -523 0
525 -539 0
529 -539 0
533 -539 0
536 -539 0
-525 -529 -533 -536 539 0
538 -540 0
-538 540 0
522 -541 0
539 -541 0
-522 -539 541 0
-541 542 0
-523 542 0
541 523 -542 0
53 146 -545 0
-53 146 545 0
53 -146 545 0
-53 -146 -545 0
545 542 -239 0
-545 542 239 0
545 -542 239 0
-545 -542 -239 0
542 -546 0
545 -546 0
-542 -545 546 0
146 -547 0
53 -547 0
-146 -53 547 0
-546 544 0
-547 544 0
546 547 -544 0
54 147 -549 0
-54 147 549 0
54 -147 549 0
-54 -147 -549 0
549 544 -240 0
-549 544 240 0
549 -544 240 0
-549 -544 -240 0
544 -550 0
549 -550 0
-544 -549 550 0
147 -551 0
54 -551 0
-147 -54 551 0
-550 548 0
-551 548 0
550 551 -548 0
55 148 -553 0
-55 148 553 0
55 -148 553 0
-55 -148 -553 0
553 548 -241 0
-553 548 241 0
553 -548 241 0
-553 -548 -241 0
548 -554 0
553 -554 0
-548 -553 554 0
148 -555 0
55 -555 0
-148 -55 555 0
-554 552 0
-555 552 0
554 555 -552 0
56 149 -556 0
-56 149 556 0
56 -149 556 0
-56 -149 -556 0
556 552 -242 0
-556 552 242 0
556 -552 242 0
-556 -552 -242 0
552 -557 0
556 -557 0
-552 -556 557 0
149 -558 0
56 -558 0
-149 -56 558 0
-557 543 0
-558 543 0
557 558 -543 0
545 -559 0
549 -559 0
553 -559 0
556 -559 0
-545 -549 -553 -556 559 0
558 -560 0
-558 560 0
542 -561 0
559 -561 0
-542 -559 561 0
-561 562 0
-543 562 0
561 543 -562 0
57 150 -565 0
-57 150 565 0
57 -150 565 0
-57 -150 -565 0
565 562 -243 0
-565 562 243 0
565 -562 243 0
-565 -562 -243 0
562 -566 0
565 -566 0
-562 -565 566 0
150 -567 0
57 -567 0
-150 -57 567 0
-566 564 0
-567 564 0
566 567 -564 0
58 151 -569 0
-58 151 569 0
58 -151 569 0
-58 -151 -569 0
569 564 -244 0
-569 564 244 0
569 -564 244 0
-569 -564 -244 0
564 -570 0
569 -570 0
-564 -569 570 0
151 -571 0
58 -571 0
-151 -58 571 0
-570 568 0
-571 568 0
570 571 -568 0
59 152 -573 0
-59 152 573 0
59 -152 573 0
-59 -152 -573 0
573 568 -245 0
-573 568 245 0
573 -568 245 0
-573 -568 -245 0
568 -574 0
573 -574 0
-568 -573 574 0
152 -575 0
59 -575 0
-152 -59 575 0
-574 572 0
-575 572 0
574 575 -572 0
60 153 -576 0
-60 153 576 0
60 -153 576 0
-60 -153 -576 0
576 572 -246 0
-576 572 246 0
576 -572 246 0
-576 -572 -246 0
572 -577 0
576 -577 0
-572 -576 577 0
153 -578 0
60 -578 0
-153 -60 578 0
-577 563 0
-578 563 0
577 578 -563 0
565 -579 0
569 -579 0
573 -579 0
576 -579 0
-565 -569 -573 -576 579 0
578 -580 0
-578 580 0
562 -581 0
579 -581 0
-562 -579 581 0
-581 582 0
-563 582 0
581 563 -582 0
61 154 -585 0
-61 154 585 0
61 -154 585 0
-61 -154 -585 0
585 582 -247 0
-585 582 247 0
585 -582 247 0
-585 -582 -247 0
582 -586 0
585 -586 0
-582 -585 586 0
154 -587 0
61 -587 0
-154 -61 587 0
-586 584 0
-587 584 0
586 587 -584 0
62 155 -589 0
-62 155 589 0
62 -155 589 0
-62 -155 -589 0
589 584 -248 0
-589 584 248 0
589 -584 248 0
-589 -584 -248 0
584 -590 0
589 -590 0
-584 -589 590 0
155 -591 0
62 -591 0
-155 -62 591 0
-590 588 0
-591 588 0
590 591 -588 0
63 156 -593 0
-63 156 593 0
63 -156 593 0
-63 -156 -593 0
593 588 -249 0
-593 588 249 0
593 -588 249 0
-593 -588 -249 0
588 -594 0
593 -594 0
-588 -593 594 0
156 -595 0
63 -595 0
-156 -63 595 0
-594 592 0
-595 592 0
594 595 -592 0
64 157 -596 0
-64 157 596 0
64 -157 596 0
-64 -157 -596 0
596 592 -250 0
-596 592 250 0
596 -592 250 0
-596 -592 -250 0
592 -597 0
596 -597 0
-592 -596 597 0
157 -598 0
64 -598 0
-157 -64 598 0
-597 583 0
-598 583 0
597 598 -583 0
585 -599 0
589 -599 0
593 -599 0
596 -599 0
-585 -589 -593 -596 599 0
598 -600 0
-598 600 0
582 -601 0
599 -601 0
-582 -599 601 0
-601 602 0
-583 602 0
601 583 -602 0
65 158 -605 0
-65 158 605 0
65 -158 605 0
-65 -158 -605 0
605 602 -251 0
-605 602 251 0
605 -602 251 0
-605 -602 -251 0
602 -606 0
605 -606 0
-602 -605 606 0
158 -607 0
65 -607 0
-158 -65 607 0
-606 604 0
-607 604 0
606 607 -604 0
66 159 -609 0
-66 159 609 0
66 -159 609 0
-66 -159 -609 0
609 604 -252 0
-609 604 252 0
609 -604 252 0
-609 -604 -252 0
604 -610 0
609 -610 0
-604 -609 610 0
159 -611 0
66 -611 0
-159 -66 611 0
-610 608 0
-611 608 0
610 611 -608 0
67 160 -613 0
-67 160 613 0
67 -160 613 0
-67 -160 -613 0
613 608 -253 0
-613 608 253 0
613 -608 253 0
-613 -608 -253 0
608 -614 0
613 -614 0
-608 -613 614 0
160 -615 0
67 -615 0
-160 -67 615 0
-614 612 0
-615 612 0
614 615 -612 0
68 161 -616 0
-68 161 616 0
68 -161 616 0
-68 -161 -616 0
616 612 -254 0
-616 612 254 0
616 -612 254 0
-616 -612 -254 0
612 -617 0
616 -617 0
-612 -616 617 0
161 -618 0
68 -618 0
-161 -68 618 0
-617 603 0
-618 603 0
617 618 -603 0
605 -619 0
609 -619 0
613 -619 0
616 -619 0
-605 -609 -613 -616 619 0
618 -620 0
-618 620 0
602 -621 0
619 -621 0
-602 -619 621 0
-621 622 0
-603 622 0
621 603 -622 0
69 162 -625 0
-69 162 625 0
69 -162 625 0
-69 -162 -625 0
625 622 -255 0
-625 622 255 0
625 -622 255 0
-625 -622 -255 0
622 -626 0
625 -626 0
-622 -625 626 0
162 -627 0
69 -627 0
-162 -69 627 0
-626 624 0
-627 624 0
626 627 -624 0
70 163 -629 0
-70 163 629 0
70 -163 629 0
-70 -163 -629 0
629 624 -256 0
-629 624 256 0
629 -624 256 0
-629 -624 -256 0
624 -630 0
629 -630 0
-624 -629 630 0
163 -631 0
70 -631 0
-163 -70 631 0
-630 628 0
-631 628 0
630 631 -628 0
71 164 -633 0
-71 164 633 0
71 -164 633 0
-71 -164 -633 0
633 628 -257 0
-633 628 257 0
633 -628 257 0
-633 -628 -257 0
628 -634 0
633 -634 0
-628 -633 634 0
164 -635 0
71 -635 0
-164 -71 635 0
-634 632 0
-635 632 0
634 635 -632 0
72 165 -636 0
-72 165 636 0
72 -165 636 0
-72 -165 -636 0
636 632 -258 0
-636 632 258 0
636 -632 258 0
-636 -632 -258 0
632 -637 0
636 -637 0
-632 -636 637 0
165 -638 0
72 -638 0
-165 -72 638 0
-637 623 0
-638 623 0
637 638 -623 0
625 -639 0
629 -639 0
633 -639 0
636 -639 0
-625 -629 -633 -636 639 0
638 -640 0
-638 640 0
622 -641 0
639 -641 0
-622 -639 641 0
-641 642 0
-623 642 0
641 623 -642 0
73 166 -645 0
-73 166 645 0
73 -166 645 0
-73 -166 -645 0
645 642 -259 0
-645 642 259 0
645 -642 259 0
-645 -642 -259 0
642 -646 0
645 -646 0
-642 -645 646 0
166 -647 0
73 -647 0
-166 -73 647 0
-646 644 0
-647 644 0
646 647 -644 0
74 167 -649 0
-74 167 649 0
74 -167 649 0
-74 -167 -649 0
649 644 -260 0
-649 644 260 0
649 -644 260 0
-649 -644 -260 0
644 -650 0
649 -650 0
-644 -649 650 0
167 -651 0
74 -651 0
-167 -74 651 0
-650 648 0
-651 648 0
650 651 -648 0
75 168 -653 0
-75 168 653 0
75 -168 653 0
-75 -168 -653 0
653 648 -261 0
-653 648 261 0
653 -648 261 0
-653 -648 -261 0
648 -654 0
653 -654 0
-648 -653 654 0
168 -655 0
75 -655 0
-168 -75 655 0
-654 652 0
-655 652 0
654 655 -652 0
76 169 -656 0
-76 169 656 0
76 -169 656 0
-76 -169 -656 0
656 652 -262 0
-656 652 262 0
656 -652 262 0
-656 -652 -262 0
652 -657 0
656 -657 0
-652 -656 657 0
169 -658 0
76 -658 0
-169 -76 658 0
-657 643 0
-658 643 0
657 658 -643 0
645 -659 0
649 -659 0
653 -659 0
656 -659 0
-645 -649 -653 -656 659 0
658 -660 0
-658 660 0
642 -661 0
659 -661 0
-642 -659 661 0
-661 662 0
-643 662 0
661 643 -662 0
77 170 -665 0
-77 170 665 0
77 -170 665 0
-77 -170 -665 0
665 662 -263 0
-665 662 263 0
665 -662 263 0
-665 -662 -263 0
662 -666 0
665 -666 0
-662 -665 666 0
170 -667 0
77 -667 0
-170 -77 667 0
-666 664 0
-667 664 0
666 667 -664 0
78 171 -669 0
-78 171 669 0
78 -171 669 0
-78 -171 -669 0
669 664 -264 0
-669 664 264 0
669 -664 264 0
-669 -664 -264 0
664 -670 0
669 -670 0
-664 -669 670 0
171 -671 0
78 -671 0
-171 -78 671 0
-670 668 0
-671 668 0
670 671 -668 0
79 172 -673 0
-79 172 673 0
79 -172 673 0
-79 -172 -673 0
673 668 -265 0
-673 668 265 0
673 -668 265 0
-673 -668 -265 0
668 -674 0
673 -674 0
-668 -673 674 0
172 -675 0
79 -675 0
-172 -79 675 0
-674 672 0
-675 672 0
674 675 -672 0
80 173 -676 0
-80 173 676 0
80 -173 676 0
-80 -173 -676 0
676 672 -266 0
-676 672 266 0
676 -672 266 0
-676 -672 -266 0
672 -677 0
676 -677 0
-672 -676 677 0
173 -678 0
80 -678 0
-173 -80 678 0
-677 663 0
-678 663 0
677 678 -663 0
665 -679 0
669 -679 0
673 -679 0
676 -679 0
-665 -669 -673 -676 679 0
678 -680 0
-678 680 0
662 -681 0
679 -681 0
-662 -679 681 0
-681 682 0
-663 682 0
681 663 -682 0
81 174 -685 0
-81 174 685 0
81 -174 685 0
-81 -174 -685 0
685 682 -267 0
-685 682 267 0
685 -682 267 0
-685 -682 -267 0
682 -686 0
685 -686 0
-682 -685 686 0
174 -687 0
81 -687 0
-174 -81 687 0
-686 684 0
-687 684 0
686 687 -684 0
82 175 -689 0
-82 175 689 0
82 -175 689 0
-82 -175 -689 0
689 684 -268 0
-689 684 268 0
689 -684 268 0
-689 -684 -268 0
684 -690 0
689 -690 0
-684 -689 690 0
175 -691 0
82 -691 0
-175 -82 691 0
-690 688 0
-691 688 0
690 691 -688 0
83 176 -693 0
-83 176 693 0
83 -176 693 0
-83 -176 -693 0
693 688 -269 0
-693 688 269 0
693 -688 269 0
-693 -688 -269 0
688 -694 0
693 -694 0
-688 -693 694 0
176 -695 0
83 -695 0
-176 -83 695 0
-694 692 0
-695 692 0
694 695 -692 0
84 177 -696 0
-84 177 696 0
84 -177 696 0
-84 -177 -696 0
696 692 -270 0
-696 692 270 0
696 -692 270 0
-696 -692 -270 0
692 -697 0
696 -697 0
-692 -696 697 0
177 -698 0
84 -698 0
-177 -84 698 0
-697 683 0
-698 683 0
697 698 -683 0
685 -699 0
689 -699 0
693 -699 0
696 -699 0
-685 -689 -693 -696 699 0
698 -700 0
-698 700 0
682 -701 0
699 -701 0
-682 -699 701 0
-701 702 0
-683 702 0
701 683 -702 0
85 178 -705 0
-85 178 705 0
85 -178 705 0
-85 -178 -705 0
705 702 -271 0
-705 702 271 0
705 -702 271 0
-705 -702 -271 0
702 -706 0
705 -706 0
-702 -705 706 0
178 -707 0
85 -707 0
-178 -85 707 0
-706 704 0
-707 704 0
706 707 -704 0
86 179 -709 0
-86 179 709 0
86 -179 709 0
-86 -179 -709 0
709 704 -272 0
-709 704 272 0
709 -704 272 0
-709 -704 -272 0
704 -710 0
709 -710 0
-704 -709 710 0
179 -711 0
86 -711 0
-179 -86 711 0
-710 708 0
-711 708 0
710 711 -708 0
87 180 -713 0
-87 180 713 0
87 -180 713 0
-87 -180 -713 0
713 708 -273 0
-713 708 273 0
713 -708 273 0
-713 -708 -273 0
708 -714 0
713 -714 0
-708 -713 714 0
180 -715 0
87 -715 0
-180 -87 715 0
-714 712 0
-715 712 0
714 715 -712 0
88 181 -716 0
-88 181 716 0
88 -181 716 0
-88 -181 -716 0
716 712 -274 0
-716 712 274 0
716 -712 274 0
-716 -712 -274 0
712 -717 0
716 -717 0
-712 -716 717 0
181 -718 0
88 -718 0
-181 -88 718 0
-717 703 0
-718 703 0
717 718 -703 0
705 -719 0
709 -719 0
713 -719 0
716 -719 0
-705 -709 -713 -716 719 0
718 -720 0
-718 720 0
702 -721 0
719 -721 0
-702 -719 721 0
-721 722 0
-703 722 0
721 703 -722 0
89 182 -725 0
-89 182 725 0
89 -182 725 0
-89 -182 -725 0
725 722 -275 0
-725 722 275 0
725 -722 275 0
-725 -722 -275 0
722 -726 0
725 -726 0
-722 -725 726 0
182 -727 0
89 -727 0
-182 -89 727 0
-726 724 0
-727 724 0
726 727 -724 0
90 183 -729 0
-90 183 729 0
90 -183 729 0
-90 -183 -729 0
729 724 -276 0
-729 724 276 0
729 -724 276 0
-729 -724 -276 0
724 -730 0
729 -730 0
-724 -729 730 0
183 -731 0
90 -731 0
-183 -90 731 0
-730 728 0
-731 728 0
730 731 -728 0
91 184 -733 0
-91 184 733 0
91 -184 733 0
-91 -184 -733 0
733 728 -277 0
-733 728 277 0
733 -728 277 0
-733 -728 -277 0
728 -734 0
733 -734 0
-728 -733 734 0
184 -735 0
91 -735 0
-184 -91 735 0
-734 732 0
-735 732 0
734 735 -732 0
92 185 -736 0
-92 185 736 0
92 -185 736 0
-92 -185 -736 0
736 732 -278 0
-736 732 278 0
736 -732 278 0
-736 -732 -278 0
732 -737 0
736 -737 0
-732 -736 737 0
185 -738 0
92 -738 0
-185 -92 738 0
-737 723 0
-738 723 0
737 738 -723 0
725 -739 0
729 -739 0
733 -739 0
736 -739 0
-725 -729 -733 -736 739 0
738 -740 0
-738 740 0
722 -741 0
739 -741 0
-722 -739 741 0
-741 742 0
-723 742 0
741 723 -742 0
93 186 -744 0
-93 186 744 0
93 -186 744 0
-93 -186 -744 0
744 742 -279 0
-744 742 279 0
744 -742 279 0
-744 -742 -279 0
742 -745 0
744 -745 0
-742 -744 745 0
186 -746 0
93 -746 0
-186 -93 746 0
-745 743 0
-746 743 0
745 746 -743 0
744 -747 0
-744 747 0
746 -748 0
-746 748 0
742 -749 0
747 -749 0
-742 -747 749 0
-749 750 0
-743 750 0
749 743 -750 0
750 -280 0
-750 280 0
